set S := 1 2 3 4 5;


#Maximum number of asset to invest 
param MA := 4;


param mean := 
1  13.22
2   8.24
3   9.03
4   8.08
5  16.19;


param Q : 1 2 3 4 5 := 
1  66.51  2.61  2.18  1.41  22.19
2   2.61  0.63  0.48  0.23   2.48
3   2.18  0.48  0.38  0.14   2.09
4   1.41  0.23  0.14  0.34   0.21
5  22.19  2.48  2.09  0.21  28.35;

